Os C O H                                
   1.00000000000000     
     7.3603687007896088   -0.0000002945648868   -0.0519690638487533
    -0.0000011501788057   26.9356021398804550   -0.0000004801284032
    -2.7422928688116279   -0.0000001478713803   13.4152851729484031
   Os   C    O    H 
    16    80    64    32
Direct
  0.6801985994490861  0.4248492131048082  0.8514277805674889
  0.6802190218849024  0.9248498446680075  0.8514437573383721
  0.1033122674681643  0.1942359156279082  0.8023514818744230
  0.1033014949226119  0.6942353444281754  0.8023489634581811
  0.8966826386593056  0.4442359979943535  0.6976420924544642
  0.8967033850417659  0.9442352304416559  0.6976575078893569
  0.3197970619251166  0.1748489792932632  0.6485660472674073
  0.3197853771489290  0.6748501842951687  0.6485623628269397
  0.6801997106900878  0.3251510987313750  0.3514310410636329
  0.6802180940469951  0.8251497576032071  0.3514405691549222
  0.1033145225456409  0.0557641443245657  0.3023569824445722
  0.1032994841185226  0.5557646354923848  0.3023435717352959
  0.8966841852094277  0.3057639563688511  0.1976458108732857
  0.8967020649813094  0.8057647738767777  0.1976538783557182
  0.3197986300353817  0.0751505291332583  0.1485709279731751
  0.3197840286509442  0.5751503995287987  0.1485574940168183
  0.8843423875533413  0.4333769574532200  0.9661330504606898
  0.8843628914640669  0.9333778044777714  0.9661484322392557
  0.9923426319193208  0.1911492997699805  0.9163208884460657
  0.9923303275086075  0.6911475147382576  0.9163176368156127
  0.4757740839921596  0.4169602316931182  0.9160404539999848
  0.4757939494742501  0.9169620025868322  0.9160568965330049
  0.3622244564117053  0.1517275380677212  0.8678788808281995
  0.3622103470861959  0.6517248974810756  0.8678731828936120
  0.2685200456565491  0.2480830599076540  0.8615059475715288
  0.2685157131733409  0.7480800331497977  0.8615087979204824
  0.7146000376586406  0.3530520960415374  0.8474978834494027
  0.7146157041529644  0.8530525605009949  0.8475144283273288
  0.6395471852494518  0.4962675736733374  0.8341295256631349
  0.6395689742963103  0.9962682511868355  0.8341438513541706
  0.4966912525359475  0.1629743100881235  0.8010405399252873
  0.4966786081223329  0.6629722466877169  0.8010358856636288
  0.0838141240569719  0.4846412117226975  0.7833600901049700
  0.0838341096058811  0.9846408452998887  0.7833743563622804
  0.9883475678439826  0.1321430217334504  0.7497504643541445
  0.9883317747333328  0.6321441003221704  0.7497423255336640
  0.0116508160493982  0.3821438796214333  0.7502450979758444
  0.0116695425424202  0.8821431642202036  0.7502618916759967
  0.9161802282787025  0.2346401497321083  0.7166320629622184
  0.9161719752090548  0.7346418176760383  0.7166337994811889
  0.5033045716468479  0.4129733867217637  0.6989535988731631
  0.5033252654543029  0.9129731273170901  0.6989699119874682
  0.3604435489470587  0.2462677733810363  0.6658611949683044
  0.3604402129242174  0.7462682259592094  0.6658654795951119
  0.2854003041000575  0.1030517186869056  0.6524986199783172
  0.2853838858909664  0.6030531085244328  0.6524889758664162
  0.7314718478639423  0.4980820771633447  0.6384856456812283
  0.7314921599342624  0.9980809634803374  0.6384996422525308
  0.6377721411123192  0.4017266804449605  0.6321156443433638
  0.6377927127511135  0.9017257147336163  0.6321322278254357
  0.5242234097784606  0.1669600449869829  0.5839540708706307
  0.5242090506562711  0.6669623225204880  0.5839482705773273
  0.0076517563204127  0.4411492720963742  0.5836730009696376
  0.0076744570047496  0.9411475571909539  0.5836887825711322
  0.1156530633365167  0.1833758044878830  0.5338608505405692
  0.1156420890452164  0.6833790421763395  0.5338579639710380
  0.8843436536784732  0.3166242339429880  0.4661364165021729
  0.8843619088375647  0.8166209072386124  0.4661451501257214
  0.9923446187652939  0.0588511445861657  0.4163261147456840
  0.9923285953578678  0.5588520504244737  0.4163126260603615
  0.4757740498731467  0.3330401852728524  0.4160428723612639
  0.4757942189173249  0.8330374305143431  0.4160545732906872
  0.3622243114630829  0.0982738610192849  0.3678826063692502
  0.3622107278184255  0.5982737426258190  0.3678694486688420
  0.2685269251802267  0.0019184504339228  0.3615145566378787
  0.2685093896796751  0.5019184111699030  0.3615002959417985
  0.7145972708089547  0.3969482394651860  0.3474986129887186
  0.7146185749730470  0.8969470140047068  0.3475137757855805
  0.6395525652565210  0.2537324922267818  0.3341359887908656
  0.6395636907735189  0.7537316025306953  0.3341373334095106
  0.4966921012796751  0.0870270109269059  0.3010449253724575
  0.4966779304821161  0.5870264656339255  0.3010315213380384
  0.0838164567857582  0.2653597008564525  0.2833652225683587
  0.0838319636205716  0.7653581766112664  0.2833692499457422
  0.9883453401560056  0.1178560132027987  0.2497526103995518
  0.9883342250990188  0.6178569933044055  0.2497402743042938
  0.0116493698603468  0.3678567244356064  0.2502465909475894
  0.0116713188188792  0.8678561667512398  0.2502606547079357
  0.9161837921606606  0.0153584793551502  0.2166398341329402
  0.9161685394174303  0.5153595482618573  0.2166259683094041
  0.5033052045358785  0.3370257407634087  0.1989565737025214
  0.5033248932219809  0.8370277155397023  0.1989669896657320
  0.3604514144100464  0.0037321791488735  0.1658708663206126
  0.3604324928916190  0.5037318184195112  0.1658558117923168
  0.2853962072522464  0.1469476950714342  0.1524996737576310
  0.2853879767696282  0.6469476793763841  0.1524879866107015
  0.7314765192183231  0.2519169412696496  0.1384914122260885
  0.7314876977069251  0.7519199860239947  0.1384938774237560
  0.6377721239069731  0.3482723846288744  0.1321181409584457
  0.6377930732798524  0.8482751852555211  0.1321297973947626
  0.5242231418110432  0.0830392564137949  0.0839576962242764
  0.5242098497470838  0.5830385369897650  0.0839446626339530
  0.0076531917129316  0.3088504469836221  0.0836765657902172
  0.0076733215332910  0.8088527192134021  0.0836853154886221
  0.1156549809595503  0.0666223889226264  0.0338659048888239
  0.1156402615334043  0.5666228639973769  0.0338528640020013
  0.9193473899797588  0.1885345272522823  0.9837940350430320
  0.9193338401140768  0.6885323707849562  0.9837902908901153
  0.9922297891424607  0.0627959014339644  0.9661741685981768
  0.9922137604857522  0.5627964326544325  0.9661606054209690
  0.3489669601008859  0.4129276989191099  0.9537959170264204
  0.3489875109900870  0.9129302600884941  0.9538120271559415
  0.3729293095538641  0.2770307697646172  0.9027584549506440
  0.3729305867487709  0.7770259379240776  0.9027647512038723
  0.7283535402345487  0.3102270141939285  0.8474376222542415
  0.7283642817121937  0.8102272764921273  0.8474536100171752
  0.1949857069948297  0.0084225186069065  0.8355283416919245
  0.1949653644439115  0.5084222659611666  0.8355142759282351
  0.6083505310469658  0.0383854724898674  0.8261947021809937
  0.6083286181444776  0.5383849244410899  0.8261814493640611
  0.0828018667365604  0.3446524479720367  0.7764887613030423
  0.0828184633789295  0.8446514987759051  0.7765058290430801
  0.9171991435755505  0.0946510806317059  0.7235084946217707
  0.9171801047236289  0.5946528516544594  0.7234965340557881
  0.3916580876907744  0.2883851923423673  0.6738066343688591
  0.3916625609770652  0.7883852343534195  0.6738173515575963
  0.8050284629466461  0.2584208996178221  0.6644763938183306
  0.8050199611373362  0.7584240053030986  0.6644808521090777
  0.2716509076008648  0.0602265708553117  0.6525608857420236
  0.2716312496286588  0.5602277409169822  0.6525478925255824
  0.6270797710302850  0.0270275786311421  0.5972451278094733
  0.6270601986807540  0.5270290842356833  0.5972316776524879
  0.6510304104102024  0.1629274929610892  0.5461999003524023
  0.6510144203258398  0.6629306979319195  0.5461921072025440
  0.0077689710699680  0.3127980609620362  0.5338282480139234
  0.0077872864024467  0.8127942020652398  0.5338368171705207
  0.0806474420121443  0.4385346265018176  0.5161991595945132
  0.0806711140970843  0.9385323019448557  0.5162161608043743
  0.9193489146242547  0.0614658656181265  0.4837992985065699
  0.9193326333548861  0.5614671996934300  0.4837850843306912
  0.9922273201842714  0.1872020070753616  0.4661688668063074
  0.9922159264001251  0.6872057508612538  0.4661658552203796
  0.3489661460886219  0.3370728869882749  0.4537973752563624
  0.3489886671804574  0.8370689386810225  0.4538107144404239
  0.3729206618410111  0.4729714347606283  0.4027541473346727
  0.3729392000472264  0.9729719697812917  0.4027690067564203
  0.7283476828988369  0.4397734727661889  0.3474365046387002
  0.7283700718694297  0.9397721689307776  0.3474546832368682
  0.1949680524152501  0.2415790258073850  0.3355207018557649
  0.1949831507847431  0.7415761422306614  0.3355218235713046
  0.6083375134881962  0.2116148363576287  0.3261904301290920
  0.6083416217872561  0.7116147069607510  0.3261855585911291
  0.0827983831511007  0.4053486867914552  0.2764887196665523
  0.0828223038651652  0.9053473489077019  0.2765062086832953
  0.9171938104093865  0.1553471978809516  0.2235082601292555
  0.9171858105090693  0.6553488344267833  0.2234970744125770
  0.3916494458429217  0.4616145846215694  0.1738036857221752
  0.3916712689829559  0.9616151139977464  0.1738201553877017
  0.8050164341299111  0.4915780490001330  0.1644711402652853
  0.8050323140299874  0.9915770892405915  0.1644860657090955
  0.2716421821128592  0.1897727054900288  0.1525592388680087
  0.2716398823664262  0.6897729955663224  0.1525494638913418
  0.6270666999450497  0.2229690808467966  0.0972387009280031
  0.6270732888854025  0.7229742146564070  0.0972380575606373
  0.6510290279134949  0.0870715151083261  0.0462020507655211
  0.6510160304138810  0.5870704905183559  0.0461901010414382
  0.0077672322512297  0.4372033140032179  0.0338246299894140
  0.0077889020315012  0.9372043231789022  0.0338404205029817
  0.0806485849084809  0.3114651369619105  0.0162027550488940
  0.0806702586021120  0.8114679755673176  0.0162126492079415
  0.4138769838755707  0.1629604279811884  0.9456822742240077
  0.4138634586886881  0.6629562595468093  0.9456774844977651
  0.3275086248287578  0.1121206086782008  0.8672741360430651
  0.3274911062565333  0.6121181063186384  0.8672655469767149
  0.5752618394149549  0.1971312212165872  0.8237238924836265
  0.5752520560045427  0.6971284219063320  0.8237220270242204
  0.5965504920076298  0.1329868577468710  0.7991074032358410
  0.5965355218595109  0.6329844843937840  0.7991005166047875
  0.4034465948648994  0.3829856948268284  0.7008873878464831
  0.4034671106140573  0.8829856048507349  0.7009046014017587
  0.4247323220550095  0.4471299264181587  0.6762692397298405
  0.4247535428494075  0.9471296551982386  0.6762848256430510
  0.6724897683267117  0.3621198533176547  0.6327212201257598
  0.6725101445085176  0.8621188305820570  0.6327389355836838
  0.5861193611331309  0.4129590698150326  0.5543119659771083
  0.5861398781873167  0.9129575840837146  0.5543281958300149
  0.4138772796079738  0.0870417347333396  0.4456864134388203
  0.4138634352933214  0.5870415690607456  0.4456733070626799
  0.3275060670321306  0.1378806567730196  0.3672763883737281
  0.3274939329205188  0.6378806558041727  0.3672633367003472
  0.5752648119715027  0.0528706096542545  0.3237298506340362
  0.5752491410204339  0.5528697914461054  0.3237160647722923
  0.5965494334335206  0.1170147949727853  0.2991106752225799
  0.5965365808204129  0.6170139336091578  0.2990973050413435
  0.4034458936254482  0.3670132000626717  0.2008896173159251
  0.4034680445213065  0.8670154697882612  0.2009024257425232
  0.4247343444275716  0.3028688565082617  0.1762732623279018
  0.4247517179677331  0.8028715316628245  0.1762807617826812
  0.6724881442779885  0.3878792961141704  0.1327227584828944
  0.6725121087734915  0.8878819865097071  0.1327375624290339
  0.5861196331975732  0.3370394991509791  0.0543147487097488
  0.5861399225268862  0.8370438298979422  0.0543254775171455
 
  0.00000000E+00  0.00000000E+00  0.00000000E+00
  0.00000000E+00  0.00000000E+00  0.00000000E+00
  0.00000000E+00  0.00000000E+00  0.00000000E+00
  0.00000000E+00  0.00000000E+00  0.00000000E+00
  0.00000000E+00  0.00000000E+00  0.00000000E+00
  0.00000000E+00  0.00000000E+00  0.00000000E+00
  0.00000000E+00  0.00000000E+00  0.00000000E+00
  0.00000000E+00  0.00000000E+00  0.00000000E+00
  0.00000000E+00  0.00000000E+00  0.00000000E+00
  0.00000000E+00  0.00000000E+00  0.00000000E+00
  0.00000000E+00  0.00000000E+00  0.00000000E+00
  0.00000000E+00  0.00000000E+00  0.00000000E+00
  0.00000000E+00  0.00000000E+00  0.00000000E+00
  0.00000000E+00  0.00000000E+00  0.00000000E+00
  0.00000000E+00  0.00000000E+00  0.00000000E+00
  0.00000000E+00  0.00000000E+00  0.00000000E+00
  0.00000000E+00  0.00000000E+00  0.00000000E+00
  0.00000000E+00  0.00000000E+00  0.00000000E+00
  0.00000000E+00  0.00000000E+00  0.00000000E+00
  0.00000000E+00  0.00000000E+00  0.00000000E+00
  0.00000000E+00  0.00000000E+00  0.00000000E+00
  0.00000000E+00  0.00000000E+00  0.00000000E+00
  0.00000000E+00  0.00000000E+00  0.00000000E+00
  0.00000000E+00  0.00000000E+00  0.00000000E+00
  0.00000000E+00  0.00000000E+00  0.00000000E+00
  0.00000000E+00  0.00000000E+00  0.00000000E+00
  0.00000000E+00  0.00000000E+00  0.00000000E+00
  0.00000000E+00  0.00000000E+00  0.00000000E+00
  0.00000000E+00  0.00000000E+00  0.00000000E+00
  0.00000000E+00  0.00000000E+00  0.00000000E+00
  0.00000000E+00  0.00000000E+00  0.00000000E+00
  0.00000000E+00  0.00000000E+00  0.00000000E+00
  0.00000000E+00  0.00000000E+00  0.00000000E+00
  0.00000000E+00  0.00000000E+00  0.00000000E+00
  0.00000000E+00  0.00000000E+00  0.00000000E+00
  0.00000000E+00  0.00000000E+00  0.00000000E+00
  0.00000000E+00  0.00000000E+00  0.00000000E+00
  0.00000000E+00  0.00000000E+00  0.00000000E+00
  0.00000000E+00  0.00000000E+00  0.00000000E+00
  0.00000000E+00  0.00000000E+00  0.00000000E+00
  0.00000000E+00  0.00000000E+00  0.00000000E+00
  0.00000000E+00  0.00000000E+00  0.00000000E+00
  0.00000000E+00  0.00000000E+00  0.00000000E+00
  0.00000000E+00  0.00000000E+00  0.00000000E+00
  0.00000000E+00  0.00000000E+00  0.00000000E+00
  0.00000000E+00  0.00000000E+00  0.00000000E+00
  0.00000000E+00  0.00000000E+00  0.00000000E+00
  0.00000000E+00  0.00000000E+00  0.00000000E+00
  0.00000000E+00  0.00000000E+00  0.00000000E+00
  0.00000000E+00  0.00000000E+00  0.00000000E+00
  0.00000000E+00  0.00000000E+00  0.00000000E+00
  0.00000000E+00  0.00000000E+00  0.00000000E+00
  0.00000000E+00  0.00000000E+00  0.00000000E+00
  0.00000000E+00  0.00000000E+00  0.00000000E+00
  0.00000000E+00  0.00000000E+00  0.00000000E+00
  0.00000000E+00  0.00000000E+00  0.00000000E+00
  0.00000000E+00  0.00000000E+00  0.00000000E+00
  0.00000000E+00  0.00000000E+00  0.00000000E+00
  0.00000000E+00  0.00000000E+00  0.00000000E+00
  0.00000000E+00  0.00000000E+00  0.00000000E+00
  0.00000000E+00  0.00000000E+00  0.00000000E+00
  0.00000000E+00  0.00000000E+00  0.00000000E+00
  0.00000000E+00  0.00000000E+00  0.00000000E+00
  0.00000000E+00  0.00000000E+00  0.00000000E+00
  0.00000000E+00  0.00000000E+00  0.00000000E+00
  0.00000000E+00  0.00000000E+00  0.00000000E+00
  0.00000000E+00  0.00000000E+00  0.00000000E+00
  0.00000000E+00  0.00000000E+00  0.00000000E+00
  0.00000000E+00  0.00000000E+00  0.00000000E+00
  0.00000000E+00  0.00000000E+00  0.00000000E+00
  0.00000000E+00  0.00000000E+00  0.00000000E+00
  0.00000000E+00  0.00000000E+00  0.00000000E+00
  0.00000000E+00  0.00000000E+00  0.00000000E+00
  0.00000000E+00  0.00000000E+00  0.00000000E+00
  0.00000000E+00  0.00000000E+00  0.00000000E+00
  0.00000000E+00  0.00000000E+00  0.00000000E+00
  0.00000000E+00  0.00000000E+00  0.00000000E+00
  0.00000000E+00  0.00000000E+00  0.00000000E+00
  0.00000000E+00  0.00000000E+00  0.00000000E+00
  0.00000000E+00  0.00000000E+00  0.00000000E+00
  0.00000000E+00  0.00000000E+00  0.00000000E+00
  0.00000000E+00  0.00000000E+00  0.00000000E+00
  0.00000000E+00  0.00000000E+00  0.00000000E+00
  0.00000000E+00  0.00000000E+00  0.00000000E+00
  0.00000000E+00  0.00000000E+00  0.00000000E+00
  0.00000000E+00  0.00000000E+00  0.00000000E+00
  0.00000000E+00  0.00000000E+00  0.00000000E+00
  0.00000000E+00  0.00000000E+00  0.00000000E+00
  0.00000000E+00  0.00000000E+00  0.00000000E+00
  0.00000000E+00  0.00000000E+00  0.00000000E+00
  0.00000000E+00  0.00000000E+00  0.00000000E+00
  0.00000000E+00  0.00000000E+00  0.00000000E+00
  0.00000000E+00  0.00000000E+00  0.00000000E+00
  0.00000000E+00  0.00000000E+00  0.00000000E+00
  0.00000000E+00  0.00000000E+00  0.00000000E+00
  0.00000000E+00  0.00000000E+00  0.00000000E+00
  0.00000000E+00  0.00000000E+00  0.00000000E+00
  0.00000000E+00  0.00000000E+00  0.00000000E+00
  0.00000000E+00  0.00000000E+00  0.00000000E+00
  0.00000000E+00  0.00000000E+00  0.00000000E+00
  0.00000000E+00  0.00000000E+00  0.00000000E+00
  0.00000000E+00  0.00000000E+00  0.00000000E+00
  0.00000000E+00  0.00000000E+00  0.00000000E+00
  0.00000000E+00  0.00000000E+00  0.00000000E+00
  0.00000000E+00  0.00000000E+00  0.00000000E+00
  0.00000000E+00  0.00000000E+00  0.00000000E+00
  0.00000000E+00  0.00000000E+00  0.00000000E+00
  0.00000000E+00  0.00000000E+00  0.00000000E+00
  0.00000000E+00  0.00000000E+00  0.00000000E+00
  0.00000000E+00  0.00000000E+00  0.00000000E+00
  0.00000000E+00  0.00000000E+00  0.00000000E+00
  0.00000000E+00  0.00000000E+00  0.00000000E+00
  0.00000000E+00  0.00000000E+00  0.00000000E+00
  0.00000000E+00  0.00000000E+00  0.00000000E+00
  0.00000000E+00  0.00000000E+00  0.00000000E+00
  0.00000000E+00  0.00000000E+00  0.00000000E+00
  0.00000000E+00  0.00000000E+00  0.00000000E+00
  0.00000000E+00  0.00000000E+00  0.00000000E+00
  0.00000000E+00  0.00000000E+00  0.00000000E+00
  0.00000000E+00  0.00000000E+00  0.00000000E+00
  0.00000000E+00  0.00000000E+00  0.00000000E+00
  0.00000000E+00  0.00000000E+00  0.00000000E+00
  0.00000000E+00  0.00000000E+00  0.00000000E+00
  0.00000000E+00  0.00000000E+00  0.00000000E+00
  0.00000000E+00  0.00000000E+00  0.00000000E+00
  0.00000000E+00  0.00000000E+00  0.00000000E+00
  0.00000000E+00  0.00000000E+00  0.00000000E+00
  0.00000000E+00  0.00000000E+00  0.00000000E+00
  0.00000000E+00  0.00000000E+00  0.00000000E+00
  0.00000000E+00  0.00000000E+00  0.00000000E+00
  0.00000000E+00  0.00000000E+00  0.00000000E+00
  0.00000000E+00  0.00000000E+00  0.00000000E+00
  0.00000000E+00  0.00000000E+00  0.00000000E+00
  0.00000000E+00  0.00000000E+00  0.00000000E+00
  0.00000000E+00  0.00000000E+00  0.00000000E+00
  0.00000000E+00  0.00000000E+00  0.00000000E+00
  0.00000000E+00  0.00000000E+00  0.00000000E+00
  0.00000000E+00  0.00000000E+00  0.00000000E+00
  0.00000000E+00  0.00000000E+00  0.00000000E+00
  0.00000000E+00  0.00000000E+00  0.00000000E+00
  0.00000000E+00  0.00000000E+00  0.00000000E+00
  0.00000000E+00  0.00000000E+00  0.00000000E+00
  0.00000000E+00  0.00000000E+00  0.00000000E+00
  0.00000000E+00  0.00000000E+00  0.00000000E+00
  0.00000000E+00  0.00000000E+00  0.00000000E+00
  0.00000000E+00  0.00000000E+00  0.00000000E+00
  0.00000000E+00  0.00000000E+00  0.00000000E+00
  0.00000000E+00  0.00000000E+00  0.00000000E+00
  0.00000000E+00  0.00000000E+00  0.00000000E+00
  0.00000000E+00  0.00000000E+00  0.00000000E+00
  0.00000000E+00  0.00000000E+00  0.00000000E+00
  0.00000000E+00  0.00000000E+00  0.00000000E+00
  0.00000000E+00  0.00000000E+00  0.00000000E+00
  0.00000000E+00  0.00000000E+00  0.00000000E+00
  0.00000000E+00  0.00000000E+00  0.00000000E+00
  0.00000000E+00  0.00000000E+00  0.00000000E+00
  0.00000000E+00  0.00000000E+00  0.00000000E+00
  0.00000000E+00  0.00000000E+00  0.00000000E+00
  0.00000000E+00  0.00000000E+00  0.00000000E+00
  0.00000000E+00  0.00000000E+00  0.00000000E+00
  0.00000000E+00  0.00000000E+00  0.00000000E+00
  0.00000000E+00  0.00000000E+00  0.00000000E+00
  0.00000000E+00  0.00000000E+00  0.00000000E+00
  0.00000000E+00  0.00000000E+00  0.00000000E+00
  0.00000000E+00  0.00000000E+00  0.00000000E+00
  0.00000000E+00  0.00000000E+00  0.00000000E+00
  0.00000000E+00  0.00000000E+00  0.00000000E+00
  0.00000000E+00  0.00000000E+00  0.00000000E+00
  0.00000000E+00  0.00000000E+00  0.00000000E+00
  0.00000000E+00  0.00000000E+00  0.00000000E+00
  0.00000000E+00  0.00000000E+00  0.00000000E+00
  0.00000000E+00  0.00000000E+00  0.00000000E+00
  0.00000000E+00  0.00000000E+00  0.00000000E+00
  0.00000000E+00  0.00000000E+00  0.00000000E+00
  0.00000000E+00  0.00000000E+00  0.00000000E+00
  0.00000000E+00  0.00000000E+00  0.00000000E+00
  0.00000000E+00  0.00000000E+00  0.00000000E+00
  0.00000000E+00  0.00000000E+00  0.00000000E+00
  0.00000000E+00  0.00000000E+00  0.00000000E+00
  0.00000000E+00  0.00000000E+00  0.00000000E+00
  0.00000000E+00  0.00000000E+00  0.00000000E+00
  0.00000000E+00  0.00000000E+00  0.00000000E+00
  0.00000000E+00  0.00000000E+00  0.00000000E+00
  0.00000000E+00  0.00000000E+00  0.00000000E+00
  0.00000000E+00  0.00000000E+00  0.00000000E+00
  0.00000000E+00  0.00000000E+00  0.00000000E+00
  0.00000000E+00  0.00000000E+00  0.00000000E+00
  0.00000000E+00  0.00000000E+00  0.00000000E+00
  0.00000000E+00  0.00000000E+00  0.00000000E+00
  0.00000000E+00  0.00000000E+00  0.00000000E+00
  0.00000000E+00  0.00000000E+00  0.00000000E+00
  0.00000000E+00  0.00000000E+00  0.00000000E+00
