Achtung: Title of Simulation
   1.0000
   5.3658725671 0.0000000000 0.0000000000
   0.0000004597 5.2204398885 0.0000000000
   -2.6506496050 0.0000005689 14.8909097796
 Cl C N
 10 10 2
Direct
0.1140044096963900  0.6687980673998126  0.3310911050473154
0.1178990088029279  0.3312018519821285  0.8313313999305233
0.5323397547927607  0.1042742623316905  0.3216150835875456
0.5362343597769283  0.8957256361556103  0.8218554172586393
0.9670100031174101  0.1780393011234711  0.4909629443520406
0.9709046223912502  0.8219606418353216  0.9912032788549491
0.9770067587152280  0.8209412185053923  0.6609930308540413
0.9731122500299797  0.1790588587596776  0.1607527410871408
0.5370848060847037  0.3999519453456212  0.6553150957441035
0.5331901734152590  0.6000480963461854  0.1550747970112461
0.3615057701534111  0.7220451939933045  0.4210551363861748
0.3654003826626786  0.2779547415571109  0.9212954342580675
0.5434646721000633  0.9131191225012575  0.4162291958912219
0.5473593158903002  0.0868808034177194  0.9164694991874851
0.5477472835461451  0.6051037653826231  0.5641368296102224
0.5438527018217898  0.3948962638108199  0.0638965448439744
0.7368756804352697  0.9459725424480508  0.4915050967843511
0.7407703463661555  0.0540274091673780  0.9917454071291149
0.7411950135245258  0.7884645233210755  0.5675521771508970
0.7373004680027064  0.2115355119745451  0.0673118934816773
0.3658450082495751  0.5746829088355805  0.4930580538371847
0.3697395855873389  0.4253170196764666  0.9932983354160727
