
1.0
        5.3122000694         0.0000000000         0.0000000000
        0.0000000000         5.1770000458         0.0000000000
       -2.4459834683         0.0000000000        14.6276048965
   Cl    C    N
   10   10    2
Direct
     0.110890001         0.678330004         0.331580013
     0.110890001         0.321669996         0.831580043
     0.526769996         0.111330032         0.323139995
     0.526769996         0.888669968         0.823140025
     0.962629974         0.176869988         0.491860002
     0.962629974         0.823130012         0.991860032
     0.973710001         0.812269986         0.660860002
     0.973710001         0.187730014         0.160860002
     0.537289977         0.393559992         0.654990017
     0.537289977         0.606440008         0.154990017
     0.356599987         0.724699974         0.421429992
     0.356599987         0.275300026         0.921429992
     0.539099991         0.917200029         0.416999996
     0.539099991         0.082799971         0.916999996
     0.545000017         0.600799978         0.564450026
     0.545000017         0.399200022         0.064450026
     0.733299971         0.945900023         0.492220014
     0.733299971         0.054099977         0.992220044
     0.738200009         0.784300029         0.568069994
     0.738200009         0.215699971         0.068069994
     0.359899998         0.571500003         0.493409991
     0.359899998         0.428499997         0.993409991
