Os C O H
   1.0
     7.3644603594592368    0.0000000000000000   -0.0538834218622953
     0.0000000000000000   26.9628399612193519    0.0000000000000000
    -2.7478691228857413    0.0000000000000000   13.3966717885278168
Os C O H
  16   80   64   32
Direct
  0.6776703346306283  0.4237959672575424  0.8505863993167444
  0.6777751237301196  0.9237769837779621  0.8506471316807669
  0.1055885781854301  0.1941892781088201  0.8026329923331038
  0.1055046542042131  0.6942667982000298  0.8026082400552225
  0.8943128967514454  0.4442811249694581  0.6973246164018758
  0.8945938708589111  0.9441749513393920  0.6974341512097980
  0.3222783568103277  0.1737143519668250  0.6493861450004587
  0.3222761848289241  0.6738585990686797  0.6493803240020299
  0.6777018364415587  0.3262766472775305  0.3506025463720075
  0.6777436219191894  0.8261504016869649  0.3506309846255039
  0.1056606609181790  0.0557081355338830  0.3026665869433571
  0.1054325714714642  0.5558357881572601  0.3025746454449692
  0.8943612359783090  0.3057876702191983  0.1973471452021098
  0.8945455316320475  0.8057562534719517  0.1974116224095638
  0.3223253318400442  0.0761773663235792  0.1494102232479829
  0.3222292097992077  0.5762496826409162  0.1493562457545199
  0.8819943770481069  0.4318347955259724  0.9656097165009397
  0.8820941331251573  0.9318306526164951  0.9656665777949917
  0.9948834720440309  0.1921512163066273  0.9168560191319793
  0.9947854779282824  0.6922085635035851  0.9168250077452129
  0.4725783197127788  0.4150138627198366  0.9143297628354515
  0.4726729270265720  0.9149972780093185  0.9143858853047224
  0.3647955720532102  0.1522482074849214  0.8697129024275978
  0.3646804005010260  0.6523011184847016  0.8696618055165001
  0.2699287032281774  0.2484950443466759  0.8599760861592973
  0.2699592044872819  0.7485426678928652  0.8600204909793666
  0.7133371568488742  0.3521859001441557  0.8447358844897934
  0.7134644108254156  0.8521695562121658  0.8448466727348942
  0.6372387270750115  0.4952697509811124  0.8358925018894637
  0.6373243411049654  0.9952435897113130  0.8359137891279977
  0.4991248066408272  0.1628083388311443  0.8024579223835384
  0.4990623754220718  0.6628851621478681  0.8024472860385529
  0.0816158630483204  0.4838423233480614  0.7849955694751941
  0.0818317675041870  0.9837713479703537  0.7850808286175011
  0.9909607100383920  0.1317294834642808  0.7523418967152964
  0.9908391634833598  0.6318160092408148  0.7522960627183898
  0.0089629183064850  0.3818288955961672  0.7476211551811812
  0.0092372081717630  0.8817165971089284  0.7477408853851324
  0.9183205056057787  0.2337559886423844  0.7149583598595857
  0.9182318638417136  0.7338576826760307  0.7149652420477189
  0.5008140903478716  0.4128702283727037  0.6975207600005215
  0.5009987275892437  0.9128232726063016  0.6975740315773874
  0.3626757002607425  0.2451835355298049  0.6640740410823548
  0.3627612315592804  0.7453298051626278  0.6641196679001836
  0.2866351681994008  0.1020999864190288  0.6552183406240724
  0.2865632641263090  0.6022554699372927  0.6551991021512401
  0.7299215800436928  0.4985815542502113  0.6399584343834310
  0.7301905122408477  0.9984561579893155  0.6400449884779049
  0.6351428372801906  0.4023228078871031  0.6302586090140985
  0.6353811901655730  0.9022265180825129  0.6303666830418038
  0.5273881133715572  0.1649438523116198  0.5856513894829013
  0.5273606398890774  0.6650672884175355  0.5856329623769246
  0.0050368711336784  0.4422330876395139  0.5831099538069742
  0.0052941788940079  0.9421266921706914  0.5832090193158335
  0.1179693114766255  0.1817615619580844  0.5343554678987666
  0.1179421783501101  0.6819038861843618  0.5343682378053020
  0.8820127710670860  0.3182323258483945  0.4656332624786660
  0.8820757391061781  0.8181022260091380  0.4656430318172510
  0.9949349017683610  0.0577600097985806  0.4168804533868972
  0.9947340482039524  0.5578802103912142  0.4168005734902952
  0.4725949590974036  0.3350483809645422  0.4143386485384306
  0.4726562876419473  0.8349404783063027  0.4143769996017577
  0.3648263848086664  0.0976707533377148  0.3697276490211963
  0.3646495877455698  0.5977799206926694  0.3696470589229013
  0.2700741451238628  0.0014140996766163  0.3600467543150296
  0.2698137625915965  0.5015481880838498  0.3599498228236345
  0.7133433708620772  0.3978910933103553  0.3447613526882852
  0.7134581968122127  0.8977534503333232  0.3448212045363884
  0.6373048503069664  0.2548060257497084  0.3359202113932991
  0.6372582178730105  0.7546806335578591  0.3358860796241624
  0.4991671514704866  0.0871169483838858  0.3024752278445439
  0.4990200305924124  0.5871895506371020  0.3024299805775328
  0.0816418347346732  0.2662267353846760  0.2850252011864239
  0.0818057958178342  0.7661595932969090  0.2850511969062714
  0.9910037490686915  0.1181588849072769  0.2523656655226472
  0.9907961244530602  0.6182956223876276  0.2522722939110392
  0.0089917806063771  0.3682459654198717  0.2476370947235235
  0.0092083458718709  0.8682085418750327  0.2477249458427901
  0.9183592341963639  0.0161410320073268  0.2150025462245744
  0.9181931352511284  0.5162452966742582  0.2149210556827302
  0.5008424871115534  0.3371798745871115  0.1975323651738342
  0.5009703308255617  0.8371266244338834  0.1975624264040890
  0.3627743022361304  0.0047034673415487  0.1641153610804011
  0.3626626295838924  0.5047831919660187  0.1640783479021373
  0.2866444344430306  0.1477852020921450  0.1552563184211004
  0.2865539978826791  0.6478593415515335  0.1551611243542262
  0.7300191144811774  0.2514793744563276  0.1400058249842339
  0.7300929778033631  0.7514829133041456  0.1399975978771161
  0.6351635005475155  0.3477315375993987  0.1302684981915234
  0.6353605268982484  0.8477191364309856  0.1303567938643788
  0.5274129257732613  0.0849633308363641  0.0856646397103836
  0.5273358274873734  0.5850255284344806  0.0856197121494282
  0.0050713602965766  0.3078264448071132  0.0831263396034981
  0.0052596897311098  0.8078137753826816  0.0831926335193095
  0.1179967403628588  0.0681383476514677  0.0343905793089140
  0.1179147494638768  0.5681962042060648  0.0343331263951690
  0.9221268903920823  0.1901620995332142  0.9845355658816923
  0.9220257211882467  0.6902071934761501  0.9845016106500557
  0.9940977380901405  0.0644778309606882  0.9667761822077680
  0.9940202559840917  0.5645173418958873  0.9667221101895604
  0.3451029961859654  0.4103431985366502  0.9512795240423279
  0.3451981320880186  0.9103234280827072  0.9513346693526369
  0.3737274692243311  0.2778070837865669  0.9003443491777985
  0.3738499601691478  0.7778234487842119  0.9004326578486692
  0.7283205266216309  0.3094498284837026  0.8436172124500305
  0.7284530399969175  0.8094323644803381  0.8437617542194779
  0.1928276575303580  0.0070148652419845  0.8385885099275192
  0.1927150615742838  0.5070387152181610  0.8385380022180822
  0.6070423065382625  0.0374090718498087  0.8298256228604514
  0.6069528381869921  0.5374354766460362  0.8298348793005290
  0.0799019755509712  0.3441819985033958  0.7724842055485427
  0.0801200009094391  0.8440628470770984  0.7726068558138355
  0.9200363998833995  0.0940813675840752  0.7274753546578512
  0.9199416236561897  0.5941634779964190  0.7274335839797704
  0.3929396228856362  0.2873507842172952  0.6701228040259514
  0.3930652323891091  0.7874937642785498  0.6702166938130684
  0.8072878283369775  0.2569735072429343  0.6614193238370080
  0.8071694525583806  0.7570800732172042  0.6614541640173907
  0.2716613256436319  0.0593630212921243  0.6563099183347249
  0.2715651077378198  0.5595191716719164  0.6563111149957669
  0.6263345801641409  0.0277494599427519  0.5996491130331849
  0.6260879904423661  0.5278810726280342  0.5995738799403475
  0.6548740577929641  0.1602846610732356  0.5487061482373451
  0.6548248139330515  0.6603819655461217  0.5486796583676902
  0.0058796868601812  0.3145492307151826  0.5332577198743186
  0.0060023190655725  0.8144459421413929  0.5332439877283530
  0.0778320998349135  0.4402300840846435  0.5154463648979911
  0.0780152885847716  0.9401392089247349  0.5155164585702608
  0.9221418440672776  0.0597647581259335  0.4845445677341095
  0.9220107675130514  0.5598659488646880  0.4844926087976386
  0.9941010187224170  0.1854471356215398  0.4667325316142843
  0.9940169753518150  0.6855576915218847  0.4667657607830299
  0.3451097290227598  0.3397079454478986  0.4512843769561498
  0.3451913992512242  0.8396254279327441  0.4513298164388149
  0.3736513997793711  0.4722487209154544  0.4003369420710043
  0.3739260296141079  0.9721207465137668  0.4004400649554491
  0.7283171250779461  0.4406278209032312  0.3436626041612670
  0.7284564415406023  0.9404899861327284  0.3437163625082411
  0.1926952316995575  0.2430179784475714  0.3385697865030259
  0.1928474874050843  0.7429284410922832  0.3385567256425753
  0.6070386964024627  0.2126388539419671  0.3298754393185613
  0.6069564483227919  0.7125165975621880  0.3297850628424330
  0.0799257674862645  0.4058929459011582  0.2725029305264434
  0.0800962089741458  0.9058622085183478  0.2725881308359205
  0.9200718780617777  0.1558068764397750  0.2275032770650936
  0.9199061454778117  0.6559482779797310  0.2274056615725282
  0.3929372019012093  0.4626170763835323  0.1701562113202845
  0.3930676533735360  0.9625383751206230  0.1701832865187211
  0.8071990225712475  0.4930044675299422  0.1614067677666464
  0.8072582583241107  0.9929419520099196  0.1614667200877522
  0.2716562533125193  0.1905211891024228  0.1563776057762164
  0.2715701800689322  0.6905966179335365  0.1562434275542754
  0.6262211465445494  0.2221673249195036  0.0996380676662383
  0.6262014240619576  0.7222021425097105  0.0995849253073083
  0.6548840976985806  0.0896390737812681  0.0487133848299177
  0.6548147740274350  0.5896942995993746  0.0486724217751177
  0.0058818868770482  0.4355010872634196  0.0332284474555323
  0.0060001190487054  0.9355037398800049  0.0332732601471535
  0.0778421278828264  0.3098189657234399  0.0154524016084430
  0.0780052605368586  0.8098117412671818  0.0155104218598090
  0.4163923287306514  0.1641350332795323  0.9472227551867312
  0.4162391738406931  0.6641603370974427  0.9471921149937833
  0.3304645861648983  0.1126958190120834  0.8705015974097363
  0.3303281039145544  0.6127481134781549  0.8703902930423687
  0.5778767724445415  0.1970029390184317  0.8241565870598581
  0.5778423785990960  0.6970689116124607  0.8242091603237616
  0.5987755182275830  0.1327031486834802  0.8014521851425210
  0.5986883879280043  0.6327769602281704  0.8014079976859702
  0.4012062858025287  0.3827544196398305  0.6985358179898742
  0.4013298080418980  0.8827256892718200  0.6986039991816345
  0.4220136380300037  0.4470573409488764  0.6758215281260064
  0.4222672109263585  0.9470145096820087  0.6758127244903739
  0.6695098969765781  0.3627726274665783  0.6294662297145374
  0.6696974129439688  0.8626713050236600  0.6296418798333574
  0.5835213737164059  0.4142080160309607  0.5527501062408113
  0.5838471237122492  0.9140873543460141  0.5528350235786743
  0.4164373689953839  0.0857916968066379  0.4472409008401891
  0.4161941335759605  0.5859129328163801  0.4471739693403252
  0.3304571828994052  0.1372212390968440  0.3705060727277296
  0.3303355071800475  0.6373348284129177  0.3703858177243899
  0.5779703453916842  0.0529317408343290  0.3241887792455295
  0.5777488056519534  0.5529964085347788  0.3241769681381048
  0.5987725553340847  0.1172326467123405  0.3014532442250729
  0.5986913508215025  0.6172872443760090  0.3014069386034183
  0.4012042988636943  0.3672886364543099  0.1985365282186598
  0.4013317949807324  0.8672312546340398  0.1986032889528490
  0.4220763887575044  0.3029864632368942  0.1758431164496685
  0.4222044601988577  0.8029416861322208  0.1757911361666833
  0.6695049322906325  0.3872829939941539  0.1294692308966952
  0.6697023776299144  0.8872730735156078  0.1296388786511997
  0.5835515780592750  0.3358411193285307  0.0527622748535380
  0.5838169193693800  0.8358635102944947  0.0528228549659476
