                                        
   1.00000000000000     
     5.3505150960730425    0.0000002237510558    0.0097962277054017
    -0.0000000032055366    5.1924406701029007    0.0000005891109016
    -2.5327621368973490    0.0000007727828706   14.8439180805270166
   Cl   C    N 
    10    10     2
Direct
  0.1149071834886541  0.6767238981336590  0.3328008339629065
  0.1149072008740077  0.3232758914572713  0.8328008547076351
  0.5321893216170821  0.1092765347676448  0.3241311953331731
  0.5321893782690310  0.8907232242087559  0.8241312630633573
  0.9618213558063715  0.1771526289428493  0.4921221856264921
  0.9618215778308183  0.8228473816135278  0.9921222341143192
  0.9686868697662376  0.8162026945784575  0.6599632067871255
  0.9686871301192639  0.1837975193136927  0.1599631944961430
  0.5316252276623317  0.3970082058646298  0.6530723070647255
  0.5316254568857985  0.6029920087901530  0.1530722405830645
  0.3582494062624093  0.7256232313851427  0.4215263638659010
  0.3582495055799484  0.2743765329029557  0.9215263142562620
  0.5410356626498753  0.9176834497259492  0.4169086885510609
  0.5410358665263360  0.0823164426235365  0.9169087622722643
  0.5430362682920347  0.6026830433873585  0.5637685447730405
  0.5430363249011805  0.3973170671572035  0.0637684622425212
  0.7340864916251419  0.9476933179652391  0.4921922710933586
  0.7340865909844183  0.0523066184933114  0.9921922200252027
  0.7373837213892145  0.7867611149459464  0.5677903108783227
  0.7373839438255487  0.2132390786025908  0.0677903445550569
  0.3619775500607858  0.5754921596738427  0.4928940184876538
  0.3619778415834887  0.4245079554662965  0.9928941272604632
 
  0.00000000E+00  0.00000000E+00  0.00000000E+00
  0.00000000E+00  0.00000000E+00  0.00000000E+00
  0.00000000E+00  0.00000000E+00  0.00000000E+00
  0.00000000E+00  0.00000000E+00  0.00000000E+00
  0.00000000E+00  0.00000000E+00  0.00000000E+00
  0.00000000E+00  0.00000000E+00  0.00000000E+00
  0.00000000E+00  0.00000000E+00  0.00000000E+00
  0.00000000E+00  0.00000000E+00  0.00000000E+00
  0.00000000E+00  0.00000000E+00  0.00000000E+00
  0.00000000E+00  0.00000000E+00  0.00000000E+00
  0.00000000E+00  0.00000000E+00  0.00000000E+00
  0.00000000E+00  0.00000000E+00  0.00000000E+00
  0.00000000E+00  0.00000000E+00  0.00000000E+00
  0.00000000E+00  0.00000000E+00  0.00000000E+00
  0.00000000E+00  0.00000000E+00  0.00000000E+00
  0.00000000E+00  0.00000000E+00  0.00000000E+00
  0.00000000E+00  0.00000000E+00  0.00000000E+00
  0.00000000E+00  0.00000000E+00  0.00000000E+00
  0.00000000E+00  0.00000000E+00  0.00000000E+00
  0.00000000E+00  0.00000000E+00  0.00000000E+00
  0.00000000E+00  0.00000000E+00  0.00000000E+00
  0.00000000E+00  0.00000000E+00  0.00000000E+00
