Title of Simulation
   1.0000
   7.3646574808 0.0000000000 0.0000000000
   0.0000000000 26.9628399612 0.0000000000
   -2.8458121509 0.0000000000 13.3762084661
 Os C O H
 16 80 64 32
Direct
0.6876703346	0.4237959673	0.8505863993
0.6877751237	0.9237769838	0.8506471317
0.1155885782	0.1941892781	0.8026329923
0.1155046542	0.6942667982	0.8026082401
0.9043128968	0.444281125	0.6973246164
0.9045938709	0.9441749513	0.6974341512
0.3322783568	0.173714352	0.649386145
0.3322761848	0.6738585991	0.649380324
0.6877018364	0.3262766473	0.3506025464
0.6877436219	0.8261504017	0.3506309846
0.1156606609	0.0557081355	0.3026665869
0.1154325715	0.5558357882	0.3025746454
0.904361236	0.3057876702	0.1973471452
0.9045455316	0.8057562535	0.1974116224
0.3323253318	0.0761773663	0.1494102232
0.3322292098	0.5762496826	0.1493562458
0.891994377	0.4318347955	0.9656097165
0.8920941331	0.9318306526	0.9656665778
1.004883472	0.1921512163	0.9168560191
1.0047854779	0.6922085635	0.9168250077
0.4825783197	0.4150138627	0.9143297628
0.482672927	0.914997278	0.9143858853
0.3747955721	0.1522482075	0.8697129024
0.3746804005	0.6523011185	0.8696618055
0.2799287032	0.2484950443	0.8599760862
0.2799592045	0.7485426679	0.860020491
0.7233371568	0.3521859001	0.8447358845
0.7234644108	0.8521695562	0.8448466727
0.6472387271	0.495269751	0.8358925019
0.6473243411	0.9952435897	0.8359137891
0.5091248066	0.1628083388	0.8024579224
0.5090623754	0.6628851621	0.802447286
0.091615863	0.4838423233	0.7849955695
0.0918317675	0.983771348	0.7850808286
1.00096071	0.1317294835	0.7523418967
1.0008391635	0.6318160092	0.7522960627
0.0189629183	0.3818288956	0.7476211552
0.0192372082	0.8817165971	0.7477408854
0.9283205056	0.2337559886	0.7149583599
0.9282318638	0.7338576827	0.714965242
0.5108140903	0.4128702284	0.69752076
0.5109987276	0.9128232726	0.6975740316
0.3726757003	0.2451835355	0.6640740411
0.3727612316	0.7453298052	0.6641196679
0.2966351682	0.1020999864	0.6552183406
0.2965632641	0.6022554699	0.6551991022
0.73992158	0.4985815543	0.6399584344
0.7401905122	0.998456158	0.6400449885
0.6451428373	0.4023228079	0.630258609
0.6453811902	0.9022265181	0.630366683
0.5373881134	0.1649438523	0.5856513895
0.5373606399	0.6650672884	0.5856329624
0.0150368711	0.4422330876	0.5831099538
0.0152941789	0.9421266922	0.5832090193
0.1279693115	0.181761562	0.5343554679
0.1279421784	0.6819038862	0.5343682378
0.8920127711	0.3182323258	0.4656332625
0.8920757391	0.818102226	0.4656430318
1.0049349018	0.0577600098	0.4168804534
1.0047340482	0.5578802104	0.4168005735
0.4825949591	0.335048381	0.4143386485
0.4826562876	0.8349404783	0.4143769996
0.3748263848	0.0976707533	0.369727649
0.3746495877	0.5977799207	0.3696470589
0.2800741451	0.0014140997	0.3600467543
0.2798137626	0.5015481881	0.3599498228
0.7233433709	0.3978910933	0.3447613527
0.7234581968	0.8977534503	0.3448212045
0.6473048503	0.2548060257	0.3359202114
0.6472582179	0.7546806336	0.3358860796
0.5091671515	0.0871169484	0.3024752278
0.5090200306	0.5871895506	0.3024299806
0.0916418347	0.2662267354	0.2850252012
0.0918057958	0.7661595933	0.2850511969
1.0010037491	0.1181588849	0.2523656655
1.0007961245	0.6182956224	0.2522722939
0.0189917806	0.3682459654	0.2476370947
0.0192083459	0.8682085419	0.2477249458
0.9283592342	0.016141032	0.2150025462
0.9281931353	0.5162452967	0.2149210557
0.5108424871	0.3371798746	0.1975323652
0.5109703308	0.8371266244	0.1975624264
0.3727743022	0.0047034673	0.1641153611
0.3726626296	0.504783192	0.1640783479
0.2966444344	0.1477852021	0.1552563184
0.2965539979	0.6478593416	0.1551611244
0.7400191145	0.2514793745	0.140005825
0.7400929778	0.7514829133	0.1399975979
0.6451635005	0.3477315376	0.1302684982
0.6453605269	0.8477191364	0.1303567939
0.5374129258	0.0849633308	0.0856646397
0.5373358275	0.5850255284	0.0856197121
0.0150713603	0.3078264448	0.0831263396
0.0152596897	0.8078137754	0.0831926335
0.1279967404	0.0681383477	0.0343905793
0.1279147495	0.5681962042	0.0343331264
0.9321268904	0.1901620995	0.9845355659
0.9320257212	0.6902071935	0.9845016107
1.0040977381	0.064477831	0.9667761822
1.004020256	0.5645173419	0.9667221102
0.3551029962	0.4103431985	0.951279524
0.3551981321	0.9103234281	0.9513346694
0.3837274692	0.2778070838	0.9003443492
0.3838499602	0.7778234488	0.9004326578
0.7383205266	0.3094498285	0.8436172125
0.73845304	0.8094323645	0.8437617542
0.2028276575	0.0070148652	0.8385885099
0.2027150616	0.5070387152	0.8385380022
0.6170423065	0.0374090718	0.8298256229
0.6169528382	0.5374354766	0.8298348793
0.0899019756	0.3441819985	0.7724842055
0.0901200009	0.8440628471	0.7726068558
0.9300363999	0.0940813676	0.7274753547
0.9299416237	0.594163478	0.727433584
0.4029396229	0.2873507842	0.670122804
0.4030652324	0.7874937643	0.6702166938
0.8172878283	0.2569735072	0.6614193238
0.8171694526	0.7570800732	0.661454164
0.2816613256	0.0593630213	0.6563099183
0.2815651077	0.5595191717	0.656311115
0.6363345802	0.0277494599	0.599649113
0.6360879904	0.5278810726	0.5995738799
0.6648740578	0.1602846611	0.5487061482
0.6648248139	0.6603819655	0.5486796584
0.0158796869	0.3145492307	0.5332577199
0.0160023191	0.8144459421	0.5332439877
0.0878320998	0.4402300841	0.5154463649
0.0880152886	0.9401392089	0.5155164586
0.9321418441	0.0597647581	0.4845445677
0.9320107675	0.5598659489	0.4844926088
1.0041010187	0.1854471356	0.4667325316
1.0040169754	0.6855576915	0.4667657608
0.355109729	0.3397079454	0.451284377
0.3551913993	0.8396254279	0.4513298164
0.3836513998	0.4722487209	0.4003369421
0.3839260296	0.9721207465	0.400440065
0.7383171251	0.4406278209	0.3436626042
0.7384564415	0.9404899861	0.3437163625
0.2026952317	0.2430179784	0.3385697865
0.2028474874	0.7429284411	0.3385567256
0.6170386964	0.2126388539	0.3298754393
0.6169564483	0.7125165976	0.3297850628
0.0899257675	0.4058929459	0.2725029305
0.090096209	0.9058622085	0.2725881308
0.9300718781	0.1558068764	0.2275032771
0.9299061455	0.655948278	0.2274056616
0.4029372019	0.4626170764	0.1701562113
0.4030676534	0.9625383751	0.1701832865
0.8171990226	0.4930044675	0.1614067678
0.8172582583	0.992941952	0.1614667201
0.2816562533	0.1905211891	0.1563776058
0.2815701801	0.6905966179	0.1562434276
0.6362211465	0.2221673249	0.0996380677
0.6362014241	0.7222021425	0.0995849253
0.6648840977	0.0896390738	0.0487133848
0.664814774	0.5896942996	0.0486724218
0.0158818869	0.4355010873	0.0332284475
0.016000119	0.9355037399	0.0332732601
0.0878421279	0.3098189657	0.0154524016
0.0880052605	0.8098117413	0.0155104219
0.4263923287	0.1641350333	0.9472227552
0.4262391738	0.6641603371	0.947192115
0.3404645862	0.112695819	0.8705015974
0.3403281039	0.6127481135	0.870390293
0.5878767724	0.197002939	0.8241565871
0.5878423786	0.6970689116	0.8242091603
0.6087755182	0.1327031487	0.8014521851
0.6086883879	0.6327769602	0.8014079977
0.4112062858	0.3827544196	0.698535818
0.411329808	0.8827256893	0.6986039992
0.432013638	0.4470573409	0.6758215281
0.4322672109	0.9470145097	0.6758127245
0.679509897	0.3627726275	0.6294662297
0.6796974129	0.862671305	0.6296418798
0.5935213737	0.414208016	0.5527501062
0.5938471237	0.9140873543	0.5528350236
0.426437369	0.0857916968	0.4472409008
0.4261941336	0.5859129328	0.4471739693
0.3404571829	0.1372212391	0.3705060727
0.3403355072	0.6373348284	0.3703858177
0.5879703454	0.0529317408	0.3241887792
0.5877488057	0.5529964085	0.3241769681
0.6087725553	0.1172326467	0.3014532442
0.6086913508	0.6172872444	0.3014069386
0.4112042989	0.3672886365	0.1985365282
0.411331795	0.8672312546	0.198603289
0.4320763888	0.3029864632	0.1758431164
0.4322044602	0.8029416861	0.1757911362
0.6795049323	0.387282994	0.1294692309
0.6797023776	0.8872730735	0.1296388787
0.5935515781	0.3358411193	0.0527622749
0.5938169194	0.8358635103	0.052822855

